Set parameter WLSAccessID
Set parameter WLSSecret
Set parameter LicenseID to value 2604445
Academic license 2604445 - for non-commercial use only - registered to an___@um.edu.mt
Set parameter Seed to value 23
Set parameter TimeLimit to value 14400
Gurobi Optimizer version 12.0.2 build v12.0.2rc0 (linux64 - "Ubuntu 22.04.5 LTS")

CPU model: Intel(R) Core(TM) i5-10400 CPU @ 2.90GHz, instruction set [SSE2|AVX|AVX2]
Thread count: 6 physical cores, 12 logical processors, using up to 12 threads

Non-default parameters:
TimeLimit  14400
Seed  23

Academic license 2604445 - for non-commercial use only - registered to an___@um.edu.mt
Optimize a model with 1086704 rows, 19712 columns and 2225568 nonzeros
Model fingerprint: 0xc801b35b
Variable types: 0 continuous, 19712 integer (15088 binary)
Coefficient statistics:
  Matrix range     [1e+00, 6e+01]
  Objective range  [7e-07, 2e-02]
  Bounds range     [1e+00, 3e+02]
  RHS range        [1e+00, 6e+01]
Presolve removed 9979 rows and 7517 columns
Presolve time: 4.28s
Presolved: 1076725 rows, 12195 columns, 2189295 nonzeros
Variable types: 0 continuous, 12195 integer (8051 binary)
Deterministic concurrent LP optimizer: primal and dual simplex
Showing primal log only...


Root simplex log...

Iteration    Objective       Primal Inf.    Dual Inf.      Time
       0    7.4784414e-03   0.000000e+00   2.179234e+06     11s
Concurrent spin time: 0.00s

Solved with dual simplex

Root simplex log...

Iteration    Objective       Primal Inf.    Dual Inf.      Time
    1777    4.0200660e-02   0.000000e+00   0.000000e+00     11s

Root simplex log...

Iteration    Objective       Primal Inf.    Dual Inf.      Time
    1779    4.0200047e-02   0.000000e+00   0.000000e+00     11s
Extra simplex iterations from dual to original model: 2

Use crossover to convert LP symmetric solution to basic solution...

Root crossover log...

      46 DPushes remaining with DInf 7.5133289e-05                12s
       0 DPushes remaining with DInf 1.1082811e-04                12s

     573 PPushes remaining with PInf 0.0000000e+00                12s
       0 PPushes remaining with PInf 0.0000000e+00                12s

  Push phase complete: Pinf 0.0000000e+00, Dinf 1.0107808e-04     12s


Root simplex log...

Iteration    Objective       Primal Inf.    Dual Inf.      Time
    2385    4.0200047e-02   0.000000e+00   1.010781e-04     13s
    2619    4.0200047e-02   0.000000e+00   0.000000e+00     13s
    2619    4.0200047e-02   0.000000e+00   0.000000e+00     13s

Root relaxation: objective 4.020005e-02, 2619 iterations, 4.90 seconds (2.68 work units)
Total elapsed time = 15.31s (DegenMoves)

    Nodes    |    Current Node    |     Objective Bounds      |     Work
 Expl Unexpl |  Obj  Depth IntInf | Incumbent    BestBd   Gap | It/Node Time

     0     0    0.04020    0  891          -    0.04020      -     -   20s
     0     0    0.04038    0 1399          -    0.04038      -     -   43s
     0     0    0.04041    0 1520          -    0.04041      -     -   57s
     0     0    0.04041    0 1468          -    0.04041      -     -   58s
     0     0    0.13230    0 1435          -    0.13230      -     -   60s
     0     0    0.13236    0 1433          -    0.13236      -     -   88s
     0     0    0.13237    0 1568          -    0.13237      -     -   94s
     0     0    0.13262    0 2471          -    0.13262      -     -  122s
     0     0    0.13265    0 2034          -    0.13265      -     -  127s
     0     0    0.13285    0 1878          -    0.13285      -     -  159s
     0     0    0.13286    0 2425          -    0.13286      -     -  166s
     0     0    0.13298    0 2942          -    0.13298      -     -  210s
     0     0    0.13300    0 2668          -    0.13300      -     -  221s
     0     0    0.13307    0 2715          -    0.13307      -     -  257s
     0     0    0.13307    0 2930          -    0.13307      -     -  273s
     0     0    0.13310    0 2754          -    0.13310      -     -  309s
     0     0    0.13310    0 2499          -    0.13310      -     -  330s
     0     0    0.13310    0 3041          -    0.13310      -     -  366s
     0     0    0.13312    0 2701          -    0.13312      -     -  385s
     0     0    0.13312    0 2951          -    0.13312      -     -  430s
     0     0    0.13312    0 2955          -    0.13312      -     -  450s
     0     0    0.13312    0 3133          -    0.13312      -     -  489s
     0     0    0.13312    0 2723          -    0.13312      -     -  506s
H    0     0                       5.0081591    0.13312  97.3%     -  590s
H    0     0                       3.0044827    0.13312  95.6%     -  590s
     0     2    0.13312    0 2653    3.00448    0.13312  95.6%     -  600s
     1     3    0.13312    1 2619    3.00448    0.13312  95.6%  1956  613s
     2     4    0.13314    1 3405    3.00448    0.13312  95.6% 10965  676s
     3     6    0.13316    2 2810    3.00448    0.13312  95.6%  8789  771s
     5    12    0.13312    3 2665    3.00448    0.13312  95.6%  9001 1024s
    11    18    0.13313    4 3233    3.00448    0.13312  95.6% 11050 1150s
    17    27    0.13313    5 2413    3.00448    0.13312  95.6%  9736 1338s
    26    32    0.13312    6 4489    3.00448    0.13312  95.6%  7296 1502s
    34    45    0.13312    7 4638    3.00448    0.13312  95.6%  6172 1665s
    55    68    0.13312    8 2875    3.00448    0.13312  95.6%  4777 1878s
    91    88    0.13312   12 2588    3.00448    0.13312  95.6%  3529 2085s
H  128   134                       2.9861050    0.13312  95.5%  2774 2359s
   198   192    0.13316   26 3168    2.98610    0.13312  95.5%  2133 2613s
   286   236    0.13315   41 2510    2.98610    0.13312  95.5%  1669 2812s
H  341   236                       2.9492363    0.13312  95.5%  1505 2812s
   355   285    0.13320   51 1901    2.94924    0.13312  95.5%  1487 2982s
   445   334    0.15156   65 2074    2.94924    0.13312  95.5%  1277 3138s
H  452   334                       2.4896020    0.13312  94.7%  1266 3138s
H  530   366                       2.2322054    0.13312  94.0%  1126 3276s
H  542   366                       2.1767539    0.13312  93.9%  1115 3276s
H  566   366                       2.0485828    0.13312  93.5%  1082 3276s
   592   408    0.15195   83 1653    2.04858    0.13312  93.5%  1045 3405s
   678   443    0.16093   95 2029    2.04858    0.13312  93.5%   952 3527s
H  689   443                       1.8461950    0.13312  92.8%   942 3528s
   747   497    0.16093  103 1465    1.84619    0.13312  92.8%   897 3640s
H  752   497                       1.6439106    0.13312  91.9%   892 3640s
H  810   497                       1.5524121    0.13312  91.4%   839 3640s
   851   536 infeasible  120         1.55241    0.13312  91.4%   809 3751s
H  875   536                       1.3869641    0.13312  90.4%   789 3751s
H  929   536                       1.3683734    0.13312  90.3%   748 3751s
   945   590    0.16095  139 1070    1.36837    0.13312  90.3%   738 3853s
H  967   590                       0.8535066    0.13312  84.4%   723 3853s
  1044   628 infeasible  155         0.85351    0.13312  84.4%   678 3944s
H 1045   628                       0.8533405    0.13312  84.4%   677 3944s
H 1161   628                       0.8351317    0.13312  84.1%   616 3944s
  1164   664    0.17019  174 1237    0.83513    0.13312  84.1%   619 4031s
H 1234   664                       0.8350953    0.13312  84.1%   590 4031s
H 1235   730                       0.8349947    0.13312  84.1%   591 4127s
H 1333   730                       0.8167301    0.13312  83.7%   551 4127s
H 1353   762                       0.8162912    0.13312  83.7%   549 4228s
H 1366   762                       0.8162668    0.13312  83.7%   545 4228s
H 1416   762                       0.8162251    0.13312  83.7%   527 4228s
H 1421   808                       0.8161494    0.13312  83.7%   528 4336s
H 1525   808                       0.8160432    0.13312  83.7%   495 4336s
  1533   855    0.13354   64 2606    0.81604    0.13312  83.7%   498 4441s
H 1561   855                       0.8159675    0.13312  83.7%   492 4441s
H 1563   855                       0.8157197    0.13312  83.7%   492 4441s
  1632   904    0.13365   71 2026    0.81572    0.13312  83.7%   476 4550s
H 1661   904                       0.8156440    0.13312  83.7%   470 4550s
H 1685   904                       0.7976585    0.13312  83.3%   464 4550s
  1727   957    0.13393   86 1632    0.79766    0.13312  83.3%   459 4688s
H 1749   957                       0.7975828    0.13312  83.3%   455 4688s
  1819   970    0.13420  109 1125    0.79758    0.13312  83.3%   446 4825s
H 1821   970                       0.7975728    0.13312  83.3%   445 4825s
H 1833   970                       0.7975493    0.13312  83.3%   445 4825s
H 1836   970                       0.7974160    0.13312  83.3%   447 4825s
H 1840   970                       0.7973727    0.13312  83.3%   446 4825s
  1841  1018    0.13421  115 1115    0.79737    0.13312  83.3%   446 4952s
H 1851  1018                       0.7973625    0.13312  83.3%   444 4952s
H 1872  1018                       0.7971831    0.13312  83.3%   440 4952s
  1924  1019    0.26200   84 2723    0.79718    0.13312  83.3%   437 5036s
  1926  1020    0.13335   74  965    0.79718    0.13312  83.3%   437 5079s
  1927  1021    0.13326   62 1056    0.79718    0.13312  83.3%   437 5140s
  1928  1022    0.48306  214 1291    0.79718    0.13312  83.3%   436 5173s
  1929  1022    0.13321   79 1369    0.79718    0.13312  83.3%   436 5237s
  1930  1023    0.20726  117 2590    0.79718    0.13312  83.3%   436 5338s
  1931  1024    0.13322   53 3319    0.79718    0.13312  83.3%   436 5533s
  1932  1024    0.13439  135 3561    0.79718    0.13312  83.3%   435 5665s
  1933  1025    0.13320   54 4014    0.79718    0.13313  83.3%   435 5892s
  1934  1026    0.13321   40 3205    0.79718    0.13321  83.3%   435 6010s
  1935  1026    0.18924  103 3646    0.79718    0.13321  83.3%   435 6178s
  1936  1027    0.16100  137 4877    0.79718    0.13321  83.3%   435 6374s
  1937  1028    0.13326   68 4549    0.79718    0.13323  83.3%   434 6583s
  1938  1028    0.13324   48 3682    0.79718    0.13324  83.3%   434 6710s
  1939  1029    0.13844   64 4262    0.79718    0.13327  83.3%   434 7005s
  1940  1030    0.20789  206 3692    0.79718    0.13328  83.3%   434 7160s
  1941  1030    0.13329   24 5308    0.79718    0.13329  83.3%   433 7430s
  1942  1031    0.13332  107 5377    0.79718    0.13332  83.3%   433 7691s
  1943  1032    0.13338   72 5402    0.79718    0.13338  83.3%   433 8044s
  1944  1032    0.13338   22 4251    0.79718    0.13338  83.3%   433 8235s
  1945  1033    0.17097  222 4994    0.79718    0.13338  83.3%   433 8576s
  1946  1034    0.15161   72 5834    0.79718    0.13339  83.3%   432 8998s
H 1946   981                       0.7240039    0.13339  81.6%   432 9390s
  1947   981    0.13390   84 5001    0.72400    0.13339  81.6%   432 9397s
  1948   982    0.24441  130 4636    0.72400    0.13339  81.6%   432 9738s
  1949   983    0.13588  102 4933    0.72400    0.13340  81.6%   432 10112s
H 1949   934                       0.7240013    0.13340  81.6%   432 10329s
  1950   934    0.18949  156 4003    0.72400    0.13340  81.6%   431 10394s
H 1950   887                       0.7239067    0.13340  81.6%   431 10816s
H 1950   842                       0.7238932    0.13340  81.6%   431 10817s
H 1950   799                       0.7238049    0.13340  81.6%   431 10817s
  1951   800    0.20789  206 4258    0.72380    0.13340  81.6%   431 10826s
  1952   801    0.13340   20 5275    0.72380    0.13340  81.6%   431 11242s
H 1952   761                       0.7237333    0.13340  81.6%   431 11898s
H 1952   722                       0.7234985    0.13340  81.6%   431 11898s
H 1952   686                       0.7234228    0.13340  81.6%   431 11898s
  1953   686    0.13340   59 5561    0.72342    0.13340  81.6%   431 11909s
  1954   687    0.35444  222 4802    0.72342    0.13341  81.6%   431 12433s
  1955   688    0.46458  180 5619    0.72342    0.13342  81.6%   430 12886s
  1956   688    0.13343   23 4975    0.72342    0.13343  81.6%   430 13116s
  1957   689    0.13343   58 5715    0.72342    0.13343  81.6%   430 13384s
  1958   690    0.28100  138 5861    0.72342    0.13343  81.6%   430 13697s
  1959   690    0.48306  207 6078    0.72342    0.13343  81.6%   429 14025s

Cutting planes:
  Gomory: 1522
  Lift-and-project: 15
  Cover: 930
  Implied bound: 440
  Projected implied bound: 6
  Clique: 1401
  MIR: 339
  StrongCG: 21
  Flow cover: 1392
  GUB cover: 14
  Inf proof: 2
  Zero half: 1543
  RLT: 315
  Relax-and-lift: 637
  BQP: 1

Explored 1959 nodes (1454251 simplex iterations) in 14400.31 seconds (12029.59 work units)
Thread count was 12 (of 12 available processors)

Solution count 10: 0.723423 0.723498 0.723733 ... 0.797363

Time limit reached
Best objective 7.234227946949e-01, best bound 1.334347066992e-01, gap 81.5551%
Objective Function at this solution: [[0, 1, 1], [0, 1, 13], [0, 1, 15], [1, 2, 1], [1, 2, 13], [1, 2, 15], [3, 81, 2], [3, 81, 3], [3, 269, 11], [4, 55, 10], [5, 0, 13], [5, 0, 15], [6, 7, 10], [6, 63, 6], [7, 6, 6], [7, 8, 10], [8, 7, 6], [8, 9, 10], [9, 8, 6], [9, 10, 10], [10, 9, 6], [10, 11, 10], [11, 10, 6], [11, 12, 10], [12, 11, 6], [12, 13, 10], [13, 12, 6], [13, 14, 10], [14, 13, 6], [14, 15, 10], [15, 16, 10], [16, 17, 10], [17, 18, 10], [18, 19, 10], [19, 20, 10], [19, 57, 6], [20, 19, 6], [20, 21, 10], [21, 20, 6], [21, 58, 10], [22, 5, 13], [23, 22, 13], [24, 23, 13], [25, 24, 13], [26, 25, 13], [27, 28, 2], [27, 28, 5], [27, 28, 10], [28, 29, 2], [28, 29, 5], [28, 29, 10], [28, 54, 6], [28, 54, 15], [28, 116, 1], [28, 116, 16], [29, 28, 1], [29, 28, 6], [29, 28, 15], [29, 30, 2], [29, 30, 3], [29, 30, 4], [29, 30, 7], [29, 30, 12], [29, 30, 14], [29, 199, 5], [29, 199, 8], [29, 199, 9], [29, 199, 10], [30, 29, 1], [30, 29, 8], [30, 29, 9], [30, 140, 2], [30, 140, 3], [30, 140, 4], [30, 140, 7], [30, 140, 12], [30, 140, 14], [31, 141, 2], [31, 141, 3], [31, 141, 4], [31, 141, 7], [31, 141, 12], [31, 141, 14], [32, 33, 2], [32, 33, 3], [32, 33, 4], [32, 33, 7], [32, 33, 12], [32, 33, 14], [32, 141, 1], [32, 141, 8], [32, 141, 9], [33, 142, 2], [33, 142, 3], [33, 142, 4], [33, 142, 7], [33, 142, 12], [33, 142, 14], [34, 147, 3], [34, 149, 1], [35, 97, 13], [35, 98, 16], [36, 37, 16], [37, 38, 16], [38, 39, 16], [39, 40, 16], [40, 41, 16], [41, 42, 16], [42, 43, 16], [44, 45, 13], [45, 46, 13], [46, 47, 13], [47, 48, 13], [48, 49, 13], [49, 50, 13], [50, 102, 13], [51, 150, 1], [52, 32, 8], [53, 151, 1], [53, 151, 8], [53, 151, 9], [54, 26, 13], [54, 115, 6], [54, 134, 15], [55, 6, 10], [56, 62, 6], [56, 110, 2], [56, 110, 10], [57, 61, 6], [58, 21, 6], [58, 59, 10], [59, 60, 10], [60, 83, 10], [61, 14, 6], [62, 58, 6], [71, 73, 10], [73, 74, 10], [74, 4, 10], [75, 0, 1], [75, 76, 3], [76, 75, 1], [76, 77, 3], [77, 78, 1], [77, 79, 3], [78, 79, 1], [79, 80, 1], [79, 80, 3], [80, 84, 1], [80, 85, 3], [81, 75, 3], [81, 82, 2], [82, 56, 2], [83, 56, 6], [83, 56, 10], [84, 76, 1], [85, 86, 3], [86, 77, 1], [86, 87, 3], [87, 86, 1], [87, 88, 3], [88, 87, 1], [88, 119, 3], [89, 90, 16], [90, 91, 16], [91, 92, 16], [92, 93, 16], [93, 94, 16], [94, 95, 16], [95, 96, 16], [95, 105, 13], [96, 97, 16], [97, 35, 16], [97, 104, 13], [98, 35, 13], [98, 99, 16], [99, 98, 13], [99, 100, 16], [100, 99, 13], [100, 101, 16], [101, 100, 13], [101, 102, 16], [102, 36, 16], [102, 101, 13], [103, 44, 13], [104, 95, 13], [105, 106, 13], [106, 107, 13], [107, 108, 13], [108, 109, 13], [109, 271, 13], [110, 83, 6], [110, 111, 2], [110, 111, 10], [111, 110, 6], [111, 112, 2], [111, 112, 10], [112, 111, 6], [112, 113, 2], [112, 113, 10], [113, 112, 6], [113, 114, 2], [113, 114, 10], [114, 113, 6], [114, 115, 2], [114, 115, 10], [115, 27, 2], [115, 27, 10], [115, 114, 6], [116, 117, 1], [116, 117, 16], [116, 122, 13], [117, 116, 13], [117, 118, 1], [117, 118, 16], [118, 88, 1], [118, 117, 13], [118, 120, 16], [119, 194, 3], [120, 118, 13], [120, 121, 16], [121, 89, 16], [121, 120, 13], [122, 54, 13], [123, 124, 5], [123, 136, 15], [123, 224, 11], [124, 125, 5], [125, 123, 15], [125, 126, 5], [126, 125, 15], [126, 127, 5], [127, 128, 5], [128, 126, 15], [128, 129, 5], [129, 128, 15], [129, 130, 5], [130, 129, 15], [130, 131, 5], [131, 132, 5], [132, 133, 5], [132, 135, 15], [133, 132, 15], [133, 134, 5], [134, 27, 5], [134, 133, 15], [135, 130, 15], [136, 123, 11], [136, 137, 15], [137, 136, 11], [137, 138, 15], [138, 137, 11], [138, 139, 15], [139, 5, 15], [139, 138, 11], [140, 31, 2], [140, 31, 3], [140, 31, 4], [140, 31, 7], [140, 31, 12], [140, 31, 14], [141, 32, 2], [141, 32, 3], [141, 32, 4], [141, 32, 7], [141, 32, 12], [141, 32, 14], [141, 53, 1], [141, 53, 8], [141, 53, 9], [142, 52, 8], [142, 143, 2], [142, 143, 3], [142, 143, 4], [142, 143, 7], [142, 143, 12], [142, 143, 14], [142, 270, 1], [142, 270, 9], [143, 142, 1], [143, 142, 8], [143, 142, 9], [143, 144, 2], [143, 144, 3], [143, 144, 4], [143, 144, 7], [143, 144, 12], [143, 144, 14], [144, 143, 1], [144, 143, 8], [144, 143, 9], [144, 145, 3], [144, 152, 2], [144, 152, 4], [144, 152, 7], [144, 152, 12], [144, 152, 14], [145, 146, 3], [146, 34, 3], [147, 148, 1], [147, 148, 3], [148, 34, 1], [148, 158, 3], [149, 51, 1], [150, 144, 1], [151, 30, 1], [151, 30, 8], [151, 30, 9], [152, 153, 2], [152, 153, 4], [152, 153, 7], [152, 153, 12], [152, 153, 14], [153, 144, 8], [153, 144, 9], [153, 154, 2], [153, 154, 4], [153, 154, 7], [153, 154, 12], [153, 154, 14], [154, 153, 8], [154, 153, 9], [154, 155, 2], [154, 155, 4], [154, 155, 7], [154, 155, 12], [154, 155, 14], [155, 154, 8], [155, 154, 9], [155, 186, 2], [155, 186, 4], [155, 186, 7], [155, 186, 12], [155, 186, 14], [156, 169, 2], [156, 169, 4], [156, 169, 7], [156, 169, 12], [156, 169, 14], [158, 147, 1], [169, 170, 2], [169, 170, 4], [169, 170, 7], [169, 170, 12], [169, 170, 14], [170, 171, 2], [170, 171, 4], [170, 171, 7], [170, 171, 12], [170, 171, 14], [171, 172, 2], [171, 172, 4], [171, 172, 7], [171, 172, 12], [171, 172, 14], [172, 173, 2], [172, 173, 4], [172, 173, 7], [172, 173, 12], [172, 173, 14], [173, 174, 2], [173, 174, 4], [173, 174, 7], [173, 174, 12], [173, 174, 14], [184, 216, 8], [184, 216, 9], [185, 219, 8], [185, 219, 9], [186, 187, 2], [186, 187, 4], [186, 187, 7], [186, 187, 8], [186, 187, 9], [186, 187, 12], [186, 187, 14], [187, 188, 2], [187, 188, 4], [187, 188, 7], [187, 188, 8], [187, 188, 9], [187, 188, 12], [187, 188, 14], [188, 155, 8], [188, 155, 9], [188, 156, 2], [188, 156, 4], [188, 156, 7], [188, 156, 12], [188, 156, 14], [193, 215, 16], [194, 195, 3], [195, 196, 3], [196, 197, 3], [196, 197, 4], [196, 197, 6], [196, 197, 7], [196, 197, 12], [196, 197, 14], [196, 197, 15], [196, 197, 16], [197, 198, 3], [197, 198, 4], [197, 198, 6], [197, 198, 7], [197, 198, 12], [197, 198, 14], [197, 198, 15], [197, 214, 16], [198, 29, 3], [198, 29, 4], [198, 29, 6], [198, 29, 7], [198, 29, 12], [198, 29, 14], [198, 29, 15], [199, 200, 5], [199, 200, 8], [199, 200, 9], [199, 200, 10], [200, 201, 5], [200, 201, 8], [200, 201, 9], [200, 201, 10], [200, 212, 4], [200, 212, 6], [200, 212, 7], [200, 212, 12], [200, 212, 14], [200, 212, 15], [200, 212, 16], [201, 200, 4], [201, 200, 6], [201, 200, 7], [201, 200, 12], [201, 200, 14], [201, 200, 15], [201, 200, 16], [201, 202, 5], [201, 202, 8], [201, 202, 9], [201, 202, 10], [208, 209, 4], [208, 209, 6], [208, 209, 7], [208, 209, 12], [208, 209, 14], [208, 209, 15], [208, 209, 16], [209, 210, 4], [209, 210, 6], [209, 210, 7], [209, 210, 12], [209, 210, 14], [209, 210, 15], [209, 210, 16], [210, 211, 4], [210, 211, 6], [210, 211, 7], [210, 211, 12], [210, 211, 14], [210, 211, 15], [210, 211, 16], [211, 201, 4], [211, 201, 6], [211, 201, 7], [211, 201, 12], [211, 201, 14], [211, 201, 15], [211, 201, 16], [212, 213, 4], [212, 213, 6], [212, 213, 7], [212, 213, 12], [212, 213, 14], [212, 213, 15], [212, 213, 16], [213, 196, 4], [213, 196, 6], [213, 196, 7], [213, 196, 12], [213, 196, 14], [213, 196, 15], [213, 196, 16], [214, 193, 16], [215, 28, 16], [216, 217, 8], [216, 217, 9], [217, 218, 8], [217, 218, 9], [218, 185, 8], [218, 185, 9], [219, 220, 8], [219, 220, 9], [220, 221, 8], [220, 221, 9], [221, 222, 8], [221, 222, 9], [222, 223, 8], [222, 223, 9], [223, 186, 8], [223, 186, 9], [224, 123, 5], [224, 225, 11], [225, 226, 11], [225, 247, 5], [226, 227, 11], [227, 228, 11], [228, 229, 11], [228, 268, 5], [229, 228, 5], [229, 230, 11], [230, 231, 11], [231, 232, 11], [232, 233, 11], [232, 243, 5], [233, 234, 11], [234, 235, 11], [235, 236, 11], [235, 242, 5], [236, 235, 5], [236, 237, 11], [237, 236, 5], [237, 239, 11], [238, 237, 5], [238, 248, 11], [239, 238, 5], [239, 238, 11], [242, 232, 5], [243, 244, 5], [244, 245, 5], [245, 229, 5], [246, 225, 5], [247, 224, 5], [248, 249, 11], [249, 250, 11], [249, 266, 5], [250, 251, 11], [251, 252, 11], [252, 253, 11], [253, 254, 11], [254, 255, 11], [255, 256, 5], [256, 257, 5], [257, 258, 5], [258, 259, 5], [259, 260, 5], [260, 261, 5], [261, 262, 5], [262, 263, 5], [263, 264, 5], [264, 265, 5], [265, 249, 5], [266, 267, 5], [267, 239, 5], [268, 246, 5], [269, 139, 11], [270, 32, 1], [270, 32, 9], [271, 121, 13]]
List of All Routes is {'Route_1': [158, 147, 148, 34, 149, 51, 150, 144, 143, 142, 270, 32, 141, 53, 151, 30, 29, 28, 116, 117, 118, 88, 87, 86, 77, 78, 79, 80, 84, 76, 75, 0, 1, 2], 'Route_1_1': [2, 1, 0, 75, 76, 84, 80, 79, 78, 77, 86, 87, 88, 118, 117, 116, 28, 29, 30, 151, 53, 141, 32, 270, 142, 143, 144, 150, 51, 149, 34, 148, 147, 158], 'Route_2': [3, 81, 82, 56, 110, 111, 112, 113, 114, 115, 27, 28, 29, 30, 140, 31, 141, 32, 33, 142, 143, 144, 152, 153, 154, 155, 186, 187, 188, 156, 169, 170, 171, 172, 173, 174], 'Route_2_1': [174, 173, 172, 171, 170, 169, 156, 188, 187, 186, 155, 154, 153, 152, 144, 143, 142, 33, 32, 141, 31, 140, 30, 29, 28, 27, 115, 114, 113, 112, 111, 110, 56, 82, 81, 3], 'Route_3': [3, 81, 75, 76, 77, 79, 80, 85, 86, 87, 88, 119, 194, 195, 196, 197, 198, 29, 30, 140, 31, 141, 32, 33, 142, 143, 144, 145, 146, 34, 147, 148, 158], 'Route_3_1': [158, 148, 147, 34, 146, 145, 144, 143, 142, 33, 32, 141, 31, 140, 30, 29, 198, 197, 196, 195, 194, 119, 88, 87, 86, 85, 80, 79, 77, 76, 75, 81, 3], 'Route_4': [208, 209, 210, 211, 201, 200, 212, 213, 196, 197, 198, 29, 30, 140, 31, 141, 32, 33, 142, 143, 144, 152, 153, 154, 155, 186, 187, 188, 156, 169, 170, 171, 172, 173, 174], 'Route_4_1': [174, 173, 172, 171, 170, 169, 156, 188, 187, 186, 155, 154, 153, 152, 144, 143, 142, 33, 32, 141, 31, 140, 30, 29, 198, 197, 196, 213, 212, 200, 201, 211, 210, 209, 208], 'Route_5': [255, 256, 257, 258, 259, 260, 261, 262, 263, 264, 265, 249, 266, 267, 239, 238, 237, 236, 235, 242, 232, 243, 244, 245, 229, 228, 268, 246, 225, 247, 224, 123, 124, 125, 126, 127, 128, 129, 130, 131, 132, 133, 134, 27, 28, 29, 199, 200, 201, 202], 'Route_5_1': [202, 201, 200, 199, 29, 28, 27, 134, 133, 132, 131, 130, 129, 128, 127, 126, 125, 124, 123, 224, 247, 225, 246, 268, 228, 229, 245, 244, 243, 232, 242, 235, 236, 237, 238, 239, 267, 266, 249, 265, 264, 263, 262, 261, 260, 259, 258, 257, 256, 255], 'Route_6': [208, 209, 210, 211, 201, 200, 212, 213, 196, 197, 198, 29, 28, 54, 115, 114, 113, 112, 111, 110, 83, 56, 62, 58, 21, 20, 19, 57, 61, 14, 13, 12, 11, 10, 9, 8, 7, 6, 63], 'Route_6_1': [63, 6, 7, 8, 9, 10, 11, 12, 13, 14, 61, 57, 19, 20, 21, 58, 62, 56, 83, 110, 111, 112, 113, 114, 115, 54, 28, 29, 198, 197, 196, 213, 212, 200, 201, 211, 210, 209, 208], 'Route_7': [208, 209, 210, 211, 201, 200, 212, 213, 196, 197, 198, 29, 30, 140, 31, 141, 32, 33, 142, 143, 144, 152, 153, 154, 155, 186, 187, 188, 156, 169, 170, 171, 172, 173, 174], 'Route_7_1': [174, 173, 172, 171, 170, 169, 156, 188, 187, 186, 155, 154, 153, 152, 144, 143, 142, 33, 32, 141, 31, 140, 30, 29, 198, 197, 196, 213, 212, 200, 201, 211, 210, 209, 208], 'Route_8': [184, 216, 217, 218, 185, 219, 220, 221, 222, 223, 186, 187, 188, 155, 154, 153, 144, 143, 142, 52, 32, 141, 53, 151, 30, 29, 199, 200, 201, 202], 'Route_8_1': [202, 201, 200, 199, 29, 30, 151, 53, 141, 32, 52, 142, 143, 144, 153, 154, 155, 188, 187, 186, 223, 222, 221, 220, 219, 185, 218, 217, 216, 184], 'Route_9': [184, 216, 217, 218, 185, 219, 220, 221, 222, 223, 186, 187, 188, 155, 154, 153, 144, 143, 142, 270, 32, 141, 53, 151, 30, 29, 199, 200, 201, 202], 'Route_9_1': [202, 201, 200, 199, 29, 30, 151, 53, 141, 32, 270, 142, 143, 144, 153, 154, 155, 188, 187, 186, 223, 222, 221, 220, 219, 185, 218, 217, 216, 184], 'Route_10': [71, 73, 74, 4, 55, 6, 7, 8, 9, 10, 11, 12, 13, 14, 15, 16, 17, 18, 19, 20, 21, 58, 59, 60, 83, 56, 110, 111, 112, 113, 114, 115, 27, 28, 29, 199, 200, 201, 202], 'Route_10_1': [202, 201, 200, 199, 29, 28, 27, 115, 114, 113, 112, 111, 110, 56, 83, 60, 59, 58, 21, 20, 19, 18, 17, 16, 15, 14, 13, 12, 11, 10, 9, 8, 7, 6, 55, 4, 74, 73, 71], 'Route_11': [3, 269, 139, 138, 137, 136, 123, 224, 225, 226, 227, 228, 229, 230, 231, 232, 233, 234, 235, 236, 237, 239, 238, 248, 249, 250, 251, 252, 253, 254, 255], 'Route_11_1': [255, 254, 253, 252, 251, 250, 249, 248, 238, 239, 237, 236, 235, 234, 233, 232, 231, 230, 229, 228, 227, 226, 225, 224, 123, 136, 137, 138, 139, 269, 3], 'Route_12': [208, 209, 210, 211, 201, 200, 212, 213, 196, 197, 198, 29, 30, 140, 31, 141, 32, 33, 142, 143, 144, 152, 153, 154, 155, 186, 187, 188, 156, 169, 170, 171, 172, 173, 174], 'Route_12_1': [174, 173, 172, 171, 170, 169, 156, 188, 187, 186, 155, 154, 153, 152, 144, 143, 142, 33, 32, 141, 31, 140, 30, 29, 198, 197, 196, 213, 212, 200, 201, 211, 210, 209, 208], 'Route_13': [103, 44, 45, 46, 47, 48, 49, 50, 102, 101, 100, 99, 98, 35, 97, 104, 95, 105, 106, 107, 108, 109, 271, 121, 120, 118, 117, 116, 122, 54, 26, 25, 24, 23, 22, 5, 0, 1, 2], 'Route_13_1': [2, 1, 0, 5, 22, 23, 24, 25, 26, 54, 122, 116, 117, 118, 120, 121, 271, 109, 108, 107, 106, 105, 95, 104, 97, 35, 98, 99, 100, 101, 102, 50, 49, 48, 47, 46, 45, 44, 103], 'Route_14': [208, 209, 210, 211, 201, 200, 212, 213, 196, 197, 198, 29, 30, 140, 31, 141, 32, 33, 142, 143, 144, 152, 153, 154, 155, 186, 187, 188, 156, 169, 170, 171, 172, 173, 174], 'Route_14_1': [174, 173, 172, 171, 170, 169, 156, 188, 187, 186, 155, 154, 153, 152, 144, 143, 142, 33, 32, 141, 31, 140, 30, 29, 198, 197, 196, 213, 212, 200, 201, 211, 210, 209, 208], 'Route_15': [208, 209, 210, 211, 201, 200, 212, 213, 196, 197, 198, 29, 28, 54, 134, 133, 132, 135, 130, 129, 128, 126, 125, 123, 136, 137, 138, 139, 5, 0, 1, 2], 'Route_15_1': [2, 1, 0, 5, 139, 138, 137, 136, 123, 125, 126, 128, 129, 130, 135, 132, 133, 134, 54, 28, 29, 198, 197, 196, 213, 212, 200, 201, 211, 210, 209, 208], 'Route_16': [208, 209, 210, 211, 201, 200, 212, 213, 196, 197, 214, 193, 215, 28, 116, 117, 118, 120, 121, 89, 90, 91, 92, 93, 94, 95, 96, 97, 35, 98, 99, 100, 101, 102, 36, 37, 38, 39, 40, 41, 42, 43], 'Route_16_1': [43, 42, 41, 40, 39, 38, 37, 36, 102, 101, 100, 99, 98, 35, 97, 96, 95, 94, 93, 92, 91, 90, 89, 121, 120, 118, 117, 116, 28, 215, 193, 214, 197, 196, 213, 212, 200, 201, 211, 210, 209, 208]}
